100
2 4
33 0
21 1
36 4
7 1
12 4
16 3
31 4
7 2
4 0
14 3
25 3
3 2
27 3
19 4
0 0
39 4
37 4
34 4
33 3
21 0
41 0
14 4
16 4
39 2
30 4
22 0
18 3
12 0
6 2
20 0
1 0
43 4
23 0
12 2
24 4
5 4
20 3
23 1
11 4
42 2
30 1
2 1
15 4
37 0
0 1
27 4
21 4
25 4
22 1
14 1
27 0
38 0
42 4
10 4
30 3
31 3
18 0
5 0
28 2
9 3
0 4
9 4
19 3
39 0
40 0
3 4
34 3
34 0
22 2
38 4
29 4
10 0
31 0
7 0
24 0
41 4
6 0
5 1
42 3
1 1
33 1
43 0
12 1
25 2
32 1
30 2
32 4
29 2
36 3
15 0
2 0
23 4
30 0
38 3
21 3
36 1
36 0
42 0
24 1

